82
0 27 73 55 52 36 35 54 77 42 
44 70 79 51 75 5 8 49 50 56 
3 71 43 78 23 10 37 16 45 29 
58 40 28 19 68 57 41 14 21 39 
80 13 62 12 20 30 4 59 9 22 
61 24 17 38 32 11 25 74 72 53 
69 26 18 67 33 7 15 46 60 2 
66 34 6 64 47 48 1 63 65 81 
31 76 
